
-39.4
-11.5
-11.4
-11.4
-11.2
-11.0
-11.0
-10.9
-10.8
-10.7
-10.6
-10.6
-10.6
-10.6
-10.6
-10.6
-10.6
-10.6
-10.6
-10.6
-10.6
-10.6
-11.2
-11.2
-10.8
-10.5
-10.2
-9.9
-9.8
-9.8
-9.8
-9.8
-9.8
-9.8
-9.8
-9.8
-9.8
-9.7
-9.7
-9.7
-9.6
-9.6
-9.6
-9.6
-9.6
-9.6
-9.6
-9.6
-9.6
-9.6
-9.6
-9.6
-9.6
-9.6
-9.6
-9.6
-9.6
-9.6
-5.1
-5.1
-5.1
-5.1
-5.1
-5.1
-5.1
-5.1
-5.1
-5.1
-5.1
-5.1
-5.1
-5.1
-5.1
-5.1
-5.1
-5.1
-5.1
-5.1